LAMMPS (21 Nov 2023 - Development - patch_21Nov2023-457-g2f692b9bff-modified)
OMP_NUM_THREADS environment is not set. Defaulting to 1 thread. (src/comm.cpp:98)
  using 1 OpenMP thread(s) per MPI task
# fix hmc running on SPC/E Water, using rigid/ setting

units           real
boundary        p p p
atom_style      full

read_data       data.hmc_spce
Reading data file ...
  orthogonal box = (-1 -1 -1) to (1 1 1)
  1 by 2 by 2 MPI processor grid
  reading atoms ...
  3 atoms
  scanning bonds ...
  2 = max bonds/atom
  scanning angles ...
  1 = max angles/atom
  reading bonds ...
  2 bonds
  reading angles ...
  1 angles
Finding 1-2 1-3 1-4 neighbors ...
  special bond factors lj:    0        0        0       
  special bond factors coul:  0        0        0       
     2 = max # of 1-2 neighbors
     1 = max # of 1-3 neighbors
     1 = max # of 1-4 neighbors
     2 = max # of special neighbors
  special bonds CPU = 0.000 seconds
  read_data CPU = 0.003 seconds
replicate       4 4 4
Replication is creating a 4x4x4 = 64 times larger system...
  orthogonal box = (-1 -1 -1) to (7 7 7)
  1 by 2 by 2 MPI processor grid
  192 atoms
  128 bonds
  64 angles
Finding 1-2 1-3 1-4 neighbors ...
  special bond factors lj:    0        0        0       
  special bond factors coul:  0        0        0       
     2 = max # of 1-2 neighbors
     1 = max # of 1-3 neighbors
     1 = max # of 1-4 neighbors
     2 = max # of special neighbors
  special bonds CPU = 0.000 seconds
  replicate CPU = 0.001 seconds

mass            1 15.9994
mass            2 1.00784

neighbor        2.0 bin
neigh_modify    every 2 delay 4 check yes

pair_style      lj/cut/coul/long 9.0
pair_modify     tail yes mix arithmetic
kspace_style    pppm 1.0e-5

pair_coeff      1 1 0.1554015 3.166
pair_coeff      2 2 0 0

bond_style      harmonic
bond_coeff      1 554.1349 1.000

angle_style     harmonic
angle_coeff     1 45.7696 109.47

timestep        0.25

#reset_timestep 0 time 0

thermo          50
# dump myDump all atom 50 dumps/water_v_dump*.dump
fix             2 all hmc 100 654123 300.0 rigid
  create bodies CPU = 0.000 seconds
  64 rigid bodies with 192 atoms
  0.95789707 = max distance from body owner to body atom

thermo_style custom step temp pe ke etotal f_2 f_2[*]

run             5000
PPPM initialization ...
  using 12-bit tables for long-range coulomb (src/kspace.cpp:342)
  G vector (1/distance) = 0.3592696
  grid = 10 10 10
  stencil order = 5
  estimated absolute RMS force accuracy = 0.001983856
  estimated relative force accuracy = 5.9743233e-06
  using double precision FFTW3
  3d grid and FFT values/proc = 2448 300
Generated 1 of 1 mixed pair_coeff terms from arithmetic mixing rule
WARNING: More than one fix rigid command (src/RIGID/fix_rigid_small.cpp:530)
Neighbor list info ...
  update: every = 2 steps, delay = 4 steps, check = yes
  max neighbors/atom: 2000, page size: 100000
  master list distance cutoff = 11
  ghost atom cutoff = 11
  binsize = 5.5, bins = 2 2 2
  1 neighbor lists, perpetual/occasional/extra = 1 0 0
  (1) pair lj/cut/coul/long, perpetual
      attributes: half, newton on
      pair build: half/bin/newton
      stencil: half/bin/3d
      bin: standard
Per MPI rank memory allocation (min/avg/max) = 19.49 | 19.49 | 19.49 Mbytes
   Step          Temp          PotEng         KinEng         TotEng          f_2           f_2[1]         f_2[2]         f_2[3]         f_2[4]         f_2[5]    
         0   307.01608      30212.672      116.22489      30328.897      0              0              0              0              0              0            
        50   12992.343      25410.944      4918.4188      30329.363      0              0              0              0              0              0            
       100   276.36757      21335.844      104.6225       21440.467      1              1              1             -8876.8273      8872.9852     -3.8420327    
       150   10007.99       17644.593      3788.6535      21433.246      1              1              1             -8876.8273      8872.9852     -3.8420327    
       200   312.1853       17203.548      118.18177      17321.729      1              2              2             -4132.2967      4125.3987     -6.8979903    
       250   5343.5917      15296.405      2022.8854      17319.291      1              2              2             -4132.2967      4125.3987     -6.8979903    
       300   293.69443      15164.339      111.18181      15275.52       1              3              3             -2039.209       2036.4356     -2.7734122    
       350   2477.2339      14336.796      937.7888       15274.584      1              3              3             -2039.209       2036.4356     -2.7734122    
       400   303.68753      14193.589      114.96482      14308.554      1              4              4             -970.74959      969.36038     -1.3892166    
       450   1410.8205      13774.148      534.08427      14308.232      1              4              4             -970.74959      969.36038     -1.3892166    
       500   307.57422      13802.013      116.43618      13918.449      1              5              5             -391.5762       391.11865     -0.45755      
       550   976.09533      13548.769      369.51345      13918.283      1              5              5             -391.5762       391.11865     -0.45755      
       600   268.8871       13580.85       101.79067      13682.641      1              6              6             -221.163        220.97531     -0.18769196   
       650   742.16844      13401.539      280.95742      13682.496      1              6              6             -221.163        220.97531     -0.18769196   
       700   297.16001      13422.906      112.49375      13535.4        1              7              7             -157.94394      157.80997     -0.13397029   
       750   607.12486      13305.494      229.83493      13535.329      1              7              7             -157.94394      157.80997     -0.13397029   
       800   299.24604      13333.356      113.28344      13446.639      1              8              8             -89.549912      89.498693     -0.051219392  
       850   589.09784      13223.536      223.01057      13446.546      1              8              8             -89.549912      89.498693     -0.051219392  
       900   284.11945      13263.334      107.55708      13370.891      1              9              9             -70.022499      69.973904     -0.048595432  
       950   471.24571      13192.417      178.39613      13370.813      1              9              9             -70.022499      69.973904     -0.048595432  
      1000   277.99656      13218.404      105.23918      13323.643      1              10             10            -44.929323      44.852182     -0.077141239  
      1050   443.93535      13155.541      168.05744      13323.598      1              10             10            -44.929323      44.852182     -0.077141239  
      1100   313.2628       13182.181      118.58967      13300.77       1              11             11            -36.223702      36.205704     -0.017998239  
      1150   390.64823      13152.846      147.88492      13300.731      1              11             11            -36.223702      36.205704     -0.017998239  
      1200   304.19833      13170.148      115.15819      13285.306      1              12             12            -12.032695      12.019928     -0.012766287  
      1250   372.00396      13144.467      140.82689      13285.294      1              12             12            -12.032695      12.019928     -0.012766287  
      1300   283.8557       13168.21       107.45723      13275.667      1              13             13            -1.9381101      1.9588265      0.020716492  
      1350   354.67326      13141.369      134.26613      13275.635      1              13             13            -1.9381101      1.9588265      0.020716492  
      1400   287.68355      13150.006      108.90631      13258.912      1              14             14            -18.203864      18.174459     -0.029404298  
      1450   366.04575      13120.328      138.57133      13258.9        1              14             14            -18.203864      18.174459     -0.029404298  
      1500   256.51701      13125.715      97.107818      13222.823      1              15             15            -24.290836      24.30091       0.010073888  
      1550   304.50679      13107.536      115.27497      13222.811      1              15             15            -24.290836      24.30091       0.010073888  
      1600   295.01571      13116.724      111.682        13228.406      1              16             16            -8.9906869      8.9628645     -0.027822372  
      1650   343.19625      13098.469      129.92136      13228.391      1              16             16            -8.9906869      8.9628645     -0.027822372  
      1700   308.51712      13106.04       116.79313      13222.833      1              17             17            -10.684547      10.672851     -0.011695731  
      1750   355.68495      13088.177      134.64912      13222.826      1              17             17            -10.684547      10.672851     -0.011695731  
      1800   304.5121       13101.099      115.27698      13216.376      1              18             18            -4.9411335      4.954046       0.012912533  
      1850   375.34659      13074.271      142.09229      13216.363      1              18             18            -4.9411335      4.954046       0.012912533  
      1900   305.49163      13101.099      115.64779      13216.746      0.94736842     18             19            -2.5092197      2.5301239      0.020904243  
      1950   341.56804      13087.419      129.30498      13216.724      0.94736842     18             19            -2.5092197      2.5301239      0.020904243  
      2000   277.61908      13100.116      105.09628      13205.213      0.95           19             20            -0.98221274     0.9816258     -0.00058694053
      2050   340.84656      13076.134      129.03185      13205.165      0.95           19             20            -0.98221274     0.9816258     -0.00058694053
      2100   297.92014      13086.902      112.7815       13199.683      0.95238095     20             21            -13.214724      13.170015     -0.044708937  
      2150   321.07342      13078.166      121.54648      13199.713      0.95238095     20             21            -13.214724      13.170015     -0.044708937  
      2200   257.27673      13092.608      97.395419      13190.003      0.95454545     21             22             5.7058523     -5.6810421      0.024810196  
      2250   319.97574      13068.848      121.13093      13189.979      0.95454545     21             22             5.7058523     -5.6810421      0.024810196  
      2300   311.9372       13077.831      118.08785      13195.919      0.95652174     22             23            -14.776794      14.762609     -0.014185334  
      2350   328.44884      13071.627      124.33854      13195.966      0.95652174     22             23            -14.776794      14.762609     -0.014185334  
      2400   289.66322      13082.356      109.65574      13192.012      0.95833333     23             24             4.5251656     -4.4773537      0.04781195   
      2450   294.27406      13080.604      111.40124      13192.005      0.95833333     23             24             4.5251656     -4.4773537      0.04781195   
      2500   333.03188      13071.418      126.07351      13197.491      0.96           24             25            -10.938309      10.890703     -0.047606687  
      2550   311.03236      13079.785      117.74531      13197.531      0.96           24             25            -10.938309      10.890703     -0.047606687  
      2600   291.82794      13076.893      110.47523      13187.369      0.96153846     25             26             5.4758345     -5.4503932      0.025441281  
      2650   305.90551      13071.563      115.80447      13187.368      0.96153846     25             26             5.4758345     -5.4503932      0.025441281  
      2700   282.26512      13070.021      106.85509      13176.876      0.96296296     26             27            -6.8722086      6.8508939     -0.021314748  
      2750   275.78297      13072.48       104.40119      13176.882      0.96296296     26             27            -6.8722086      6.8508939     -0.021314748  
      2800   282.62489      13064.646      106.99129      13171.638      0.96428571     27             28            -5.3749803      5.3908374      0.015857174  
      2850   298.67797      13058.564      113.06839      13171.632      0.96428571     27             28            -5.3749803      5.3908374      0.015857174  
      2900   329.82814      13052.047      124.86069      13176.908      0.96551724     28             29            -12.599244      12.561539     -0.037705184  
      2950   312.0341       13058.824      118.12453      13176.948      0.96551724     28             29            -12.599244      12.561539     -0.037705184  
      3000   294.5528       13063.821      111.50676      13175.327      0.96666667     29             30             11.773491     -11.741567      0.031924372  
      3050   304.50986      13060.065      115.27613      13175.341      0.96666667     29             30             11.773491     -11.741567      0.031924372  
      3100   279.78603      13051.81       105.9166       13157.727      0.96774194     30             31            -12.010345      11.988373     -0.021971837  
      3150   290.18445      13047.906      109.85306      13157.759      0.96774194     30             31            -12.010345      11.988373     -0.021971837  
      3200   294.27887      13052.434      111.40306      13163.837      0.96875        31             32             0.62428005    -0.59484377     0.029436283  
      3250   273.61337      13060.266      103.57986      13163.846      0.96875        31             32             0.62428005    -0.59484377     0.029436283  
      3300   267.69783      13053.121      101.34046      13154.462      0.96969697     32             33             0.68675631    -0.71700592    -0.030249604  
      3350   307.33812      13038.109      116.3468       13154.456      0.96969697     32             33             0.68675631    -0.71700592    -0.030249604  
      3400   263.30906      13044.295      99.679036      13143.974      0.97058824     33             34            -8.8258292      8.8345585      0.008729293  
      3450   276.19754      13039.411      104.55813      13143.969      0.97058824     33             34            -8.8258292      8.8345585      0.008729293  
      3500   291.03528      13044.058      110.17515      13154.233      0.97142857     34             35            -0.23765432     0.19983867    -0.037815649  
      3550   296.59208      13041.944      112.27875      13154.223      0.97142857     34             35            -0.23765432     0.19983867    -0.037815649  
      3600   302.95216      13055.343      114.68644      13170.029      0.97222222     35             36             11.28518      -11.261764      0.023415833  
      3650   284.64434      13062.276      107.75578      13170.032      0.97222222     35             36             11.28518      -11.261764      0.023415833  
      3700   273.83648      13059.926      103.66432      13163.59       0.97297297     36             37             4.5831851     -4.587233      -0.004047884  
      3750   281.32263      13057.078      106.4983       13163.576      0.97297297     36             37             4.5831851     -4.587233      -0.004047884  
      3800   261.10378      13057.834      98.844197      13156.678      0.97368421     37             38            -2.0922702      2.0879318     -0.0043383802 
      3850   309.62225      13039.441      117.21149      13156.653      0.97368421     37             38            -2.0922702      2.0879318     -0.0043383802 
      3900   283.46125      13050.995      107.3079       13158.303      0.97435897     38             39            -6.8383268      6.8069561     -0.031370764  
      3950   302.58523      13043.767      114.54754      13158.315      0.97435897     38             39            -6.8383268      6.8069561     -0.031370764  
      4000   251.03678      13052.067      95.033205      13147.1        0.975          39             40             1.0714188     -1.0481023      0.023316549  
      4050   283.85919      13039.641      107.45855      13147.1        0.975          39             40             1.0714188     -1.0481023      0.023316549  
      4100   273.39133      13045.623      103.49581      13149.119      0.97560976     40             41            -6.443846       6.4296523     -0.014193645  
      4150   285.33694      13041.126      108.01797      13149.144      0.97560976     40             41            -6.443846       6.4296523     -0.014193645  
      4200   297.8123       13038.64       112.74068      13151.38       0.97619048     41             42            -6.9833613      6.9912675      0.0079061947 
      4250   284.36104      13043.746      107.64853      13151.394      0.97619048     41             42            -6.9833613      6.9912675      0.0079061947 
      4300   304.89358      13036.801      115.42139      13152.223      0.97674419     42             43            -1.8382775      1.845791       0.0075135216 
      4350   276.45787      13047.578      104.65669      13152.234      0.97674419     42             43            -1.8382775      1.845791       0.0075135216 
      4400   265.62043      13051.283      100.55403      13151.837      0.97727273     43             44             14.481912     -14.455052      0.026859498  
      4450   285.33036      13043.795      108.01548      13151.81       0.97727273     43             44             14.481912     -14.455052      0.026859498  
      4500   263.31814      13053.444      99.682473      13153.127      0.97777778     44             45             2.1607554     -2.1651481     -0.0043926415 
      4550   294.2094       13041.745      111.37676      13153.122      0.97777778     44             45             2.1607554     -2.1651481     -0.0043926415 
      4600   285.31567      13036.291      108.00992      13144.3        0.97826087     45             46            -17.153521      17.120076     -0.033445037  
      4650   258.53829      13046.458      97.872997      13144.331      0.97826087     45             46            -17.153521      17.120076     -0.033445037  
      4700   286.41115      13043.934      108.42463      13152.358      0.9787234      46             47             7.6430796     -7.6142293      0.028850283  
      4750   279.27121      13046.618      105.72171      13152.34       0.9787234      46             47             7.6430796     -7.6142293      0.028850283  
      4800   264.01108      13053.057      99.944795      13153.001      0.97916667     47             48             9.1230525     -9.1262204     -0.0031678303 
      4850   303.50151      13038.086      114.89441      13152.98       0.97916667     47             48             9.1230525     -9.1262204     -0.0031678303 
      4900   297.61516      13043.352      112.66605      13156.018      0.97959184     48             49            -9.7051368      9.7110145      0.0058776734 
      4950   286.75627      13047.45       108.55528      13156.006      0.97959184     48             49            -9.7051368      9.7110145      0.0058776734 
      5000   283.18405      13041.555      107.20297      13148.758      0.98           49             50            -1.7961834      1.7888113     -0.0073721101 
Loop time of 12.4511 on 4 procs for 5000 steps with 192 atoms

Performance: 8.674 ns/day, 2.767 hours/ns, 401.570 timesteps/s, 77.101 katom-step/s
98.6% CPU use with 4 MPI tasks x 1 OpenMP threads

MPI task timing breakdown:
Section |  min time  |  avg time  |  max time  |%varavg| %total
---------------------------------------------------------------
Pair    | 3.413      | 5.0092     | 6.7125     |  52.8 | 40.23
Bond    | 0.01507    | 0.016099   | 0.017972   |   0.9 |  0.13
Kspace  | 0.69809    | 2.4005     | 3.9994     |  76.3 | 19.28
Neigh   | 0.04413    | 0.044186   | 0.044252   |   0.0 |  0.35
Comm    | 0.85592    | 0.86439    | 0.87057    |   0.7 |  6.94
Output  | 0.0022339  | 0.0025208  | 0.003198   |   0.8 |  0.02
Modify  | 3.9857     | 3.9924     | 4.0027     |   0.3 | 32.06
Other   |            | 0.1218     |            |       |  0.98

Nlocal:             48 ave          49 max          47 min
Histogram: 1 0 0 0 0 2 0 0 0 1
Nghost:           7508 ave        7516 max        7495 min
Histogram: 1 0 0 0 1 0 0 0 0 2
Neighs:        50105.2 ave       63864 max       35525 min
Histogram: 1 0 0 1 0 0 1 0 0 1

Total # of neighbors = 200421
Ave neighs/atom = 1043.8594
Ave special neighs/atom = 2
Neighbor list builds = 26
Dangerous builds = 0
Total wall time: 0:00:12
