LAMMPS (21 Nov 2023 - Development - patch_21Nov2023-457-g2f692b9bff-modified)
OMP_NUM_THREADS environment is not set. Defaulting to 1 thread. (src/comm.cpp:98)
  using 1 OpenMP thread(s) per MPI task
# fix hmc running on SPC/E Water, using rigid/ setting

units           real
boundary        p p p
atom_style      full

read_data       data.hmc_spce
Reading data file ...
  orthogonal box = (-1 -1 -1) to (1 1 1)
  1 by 1 by 1 MPI processor grid
  reading atoms ...
  3 atoms
  scanning bonds ...
  2 = max bonds/atom
  scanning angles ...
  1 = max angles/atom
  reading bonds ...
  2 bonds
  reading angles ...
  1 angles
Finding 1-2 1-3 1-4 neighbors ...
  special bond factors lj:    0        0        0       
  special bond factors coul:  0        0        0       
     2 = max # of 1-2 neighbors
     1 = max # of 1-3 neighbors
     1 = max # of 1-4 neighbors
     2 = max # of special neighbors
  special bonds CPU = 0.000 seconds
  read_data CPU = 0.002 seconds
replicate       4 4 4
Replication is creating a 4x4x4 = 64 times larger system...
  orthogonal box = (-1 -1 -1) to (7 7 7)
  1 by 1 by 1 MPI processor grid
  192 atoms
  128 bonds
  64 angles
Finding 1-2 1-3 1-4 neighbors ...
  special bond factors lj:    0        0        0       
  special bond factors coul:  0        0        0       
     2 = max # of 1-2 neighbors
     1 = max # of 1-3 neighbors
     1 = max # of 1-4 neighbors
     2 = max # of special neighbors
  special bonds CPU = 0.000 seconds
  replicate CPU = 0.001 seconds

mass            1 15.9994
mass            2 1.00784

neighbor        2.0 bin
neigh_modify    every 2 delay 4 check yes

pair_style      lj/cut/coul/long 9.0
pair_modify     tail yes mix arithmetic
kspace_style    pppm 1.0e-5

pair_coeff      1 1 0.1554015 3.166
pair_coeff      2 2 0 0

bond_style      harmonic
bond_coeff      1 554.1349 1.000

angle_style     harmonic
angle_coeff     1 45.7696 109.47

timestep        0.25

#reset_timestep 0 time 0

thermo          50
# dump myDump all atom 50 dumps/water_v_dump*.dump
fix             2 all hmc 100 654123 300.0 rigid
  create bodies CPU = 0.000 seconds
  64 rigid bodies with 192 atoms
  0.95789707 = max distance from body owner to body atom

thermo_style custom step temp pe ke etotal f_2 f_2[*]

run             5000
PPPM initialization ...
  using 12-bit tables for long-range coulomb (src/kspace.cpp:342)
  G vector (1/distance) = 0.3592696
  grid = 10 10 10
  stencil order = 5
  estimated absolute RMS force accuracy = 0.001983856
  estimated relative force accuracy = 5.9743233e-06
  using double precision FFTW3
  3d grid and FFT values/proc = 4913 1000
Generated 1 of 1 mixed pair_coeff terms from arithmetic mixing rule
WARNING: More than one fix rigid command (src/RIGID/fix_rigid_small.cpp:530)
Neighbor list info ...
  update: every = 2 steps, delay = 4 steps, check = yes
  max neighbors/atom: 2000, page size: 100000
  master list distance cutoff = 11
  ghost atom cutoff = 11
  binsize = 5.5, bins = 2 2 2
  1 neighbor lists, perpetual/occasional/extra = 1 0 0
  (1) pair lj/cut/coul/long, perpetual
      attributes: half, newton on
      pair build: half/bin/newton
      stencil: half/bin/3d
      bin: standard
Per MPI rank memory allocation (min/avg/max) = 23.26 | 23.26 | 23.26 Mbytes
   Step          Temp          PotEng         KinEng         TotEng          f_2           f_2[1]         f_2[2]         f_2[3]         f_2[4]         f_2[5]    
         0   307.57029      30212.672      116.4347       30329.106      0              0              0              0              0              0            
        50   11185.422      26095.495      4234.3853      30329.88       0              0              0              0              0              0            
       100   309.22596      21376.871      117.06147      21493.932      1              1              1             -8835.8008      8832.9838     -2.8170298    
       150   9255.4748      17984.198      3503.7792      21487.977      1              1              1             -8835.8008      8832.9838     -2.8170298    
       200   304.40309      17622.412      115.23571      17737.648      1              2              2             -3754.4589      3748.4664     -5.9924954    
       250   5956.9184      15479.636      2255.0681      17734.704      1              2              2             -3754.4589      3748.4664     -5.9924954    
       300   259.41265      15606.254      98.204         15704.458      1              3              3             -2016.1576      2013.1712     -2.9863844    
       350   2841.5455      14627.607      1075.7036      15703.31       1              3              3             -2016.1576      2013.1712     -2.9863844    
       400   310.30031      14717.397      117.46818      14834.866      1              4              4             -888.85695      887.80217     -1.0547835    
       450   1658.985       14206.315      628.03014      14834.345      1              4              4             -888.85695      887.80217     -1.0547835    
       500   282.91396      14347.29       107.10072      14454.391      1              5              5             -370.10724      369.68578     -0.42146017   
       550   1161.038       14014.593      439.52589      14454.119      1              5              5             -370.10724      369.68578     -0.42146017   
       600   329.99149      14098.766      124.92253      14223.689      1              6              6             -248.52386      248.3832      -0.14065474   
       650   882.13661      13889.532      333.94417      14223.476      1              6              6             -248.52386      248.3832      -0.14065474   
       700   275.88732      13986.025      104.4407       14090.465      1              7              7             -112.7415       112.65613     -0.085367848  
       750   741.50084      13809.561      280.70469      14090.265      1              7              7             -112.7415       112.65613     -0.085367848  
       800   279.7553       13886.964      105.90497      13992.869      1              8              8             -99.06069       98.898568     -0.1621215    
       850   635.68558      13752.097      240.64696      13992.744      1              8              8             -99.06069       98.898568     -0.1621215    
       900   311.74495      13844.317      118.01507      13962.332      1              9              9             -42.646838      42.63571      -0.011127824  
       950   600.51537      13734.916      227.33283      13962.249      1              9              9             -42.646838      42.63571      -0.011127824  
      1000   313.76402      13802.543      118.77941      13921.322      1              10             10            -41.774667      41.710581     -0.064085761  
      1050   608.69557      13690.813      230.42955      13921.242      1              10             10            -41.774667      41.710581     -0.064085761  
      1100   272.3402       13741.888      103.09789      13844.986      1              11             11            -60.654856      60.661713      0.0068573114 
      1150   506.03138      13653.317      191.56469      13844.882      1              11             11            -60.654856      60.661713      0.0068573114 
      1200   267.5066       13684.373      101.26807      13785.642      1              12             12            -57.514273      57.474298     -0.039975466  
      1250   472.17423      13606.824      178.74764      13785.572      1              12             12            -57.514273      57.474298     -0.039975466  
      1300   281.21855      13621.034      106.4589       13727.493      1              13             13            -63.339717      63.337755     -0.001962171  
      1350   469.51808      13549.683      177.74212      13727.425      1              13             13            -63.339717      63.337755     -0.001962171  
      1400   302.8195       13509.274      114.63622      13623.91       1              14             14            -111.76023      111.71093     -0.049300071  
      1450   440.67269      13457.05       166.82232      13623.872      1              14             14            -111.76023      111.71093     -0.049300071  
      1500   294.76464      13387.672      111.58695      13499.259      1              15             15            -121.6019       121.58241     -0.019490601  
      1550   421.64547      13339.57       159.61932      13499.189      1              15             15            -121.6019       121.58241     -0.019490601  
      1600   295.53178      13295.376      111.87736      13407.253      1              16             16            -92.295986      92.222132     -0.073853489  
      1650   364.69431      13269.183      138.05973      13407.243      1              16             16            -92.295986      92.222132     -0.073853489  
      1700   278.38183      13255.932      105.38503      13361.317      1              17             17            -39.4434        39.454124      0.010724242  
      1750   340.48088      13232.398      128.89342      13361.291      1              17             17            -39.4434        39.454124      0.010724242  
      1800   323.83685      13210.006      122.59261      13332.598      1              18             18            -45.926661      45.91098      -0.015680875  
      1850   363.23124      13195.111      137.50586      13332.617      1              18             18            -45.926661      45.91098      -0.015680875  
      1900   314.18611      13210.006      118.9392       13328.945      0.94736842     18             19            -35.606627      35.634701      0.028074292  
      1950   359.44365      13192.882      136.07202      13328.954      0.94736842     18             19            -35.606627      35.634701      0.028074292  
      2000   303.04136      13184.562      114.72021      13299.282      0.95           19             20            -25.443717      25.471152      0.027435114  
      2050   353.07788      13165.616      133.66218      13299.279      0.95           19             20            -25.443717      25.471152      0.027435114  
      2100   326.8237       13156.238      123.72332      13279.961      0.95238095     20             21            -28.323989      28.301116     -0.02287307   
      2150   335.15754      13153.103      126.8782       13279.981      0.95238095     20             21            -28.323989      28.301116     -0.02287307   
      2200   273.28616      13156.081      103.45599      13259.537      0.95454545     21             22            -0.15650719     0.13439908    -0.022108114  
      2250   317.04368      13139.51       120.02097      13259.531      0.95454545     21             22            -0.15650719     0.13439908    -0.022108114  
      2300   308.60599      13126.692      116.82677      13243.519      0.95652174     22             23            -29.389235      29.352244     -0.036991544  
      2350   307.455        13127.117      116.39105      13243.508      0.95652174     22             23            -29.389235      29.352244     -0.036991544  
      2400   294.34882      13120.718      111.42953      13232.147      0.95833333     23             24            -5.9741578      5.9495139     -0.024643891  
      2450   327.453        13108.199      123.96155      13232.161      0.95833333     23             24            -5.9741578      5.9495139     -0.024643891  
      2500   293.50366      13112.243      111.10959      13223.352      0.96           24             25            -8.4753077      8.4937787      0.01847096   
      2550   313.84229      13104.515      118.80904      13223.324      0.96           24             25            -8.4753077      8.4937787      0.01847096   
      2600   279.14641      13111.246      105.67447      13216.921      0.96153846     25             26            -0.9964278      0.97395901    -0.02246879   
      2650   308.68474      13100.075      116.85658      13216.932      0.96153846     25             26            -0.9964278      0.97395901    -0.02246879   
      2700   310.96988      13099.737      117.72165      13217.459      0.96296296     26             27            -11.509132      11.506556     -0.0025757988 
      2750   318.84229      13096.745      120.70185      13217.446      0.96296296     26             27            -11.509132      11.506556     -0.0025757988 
      2800   273.48791      13092.28       103.53237      13195.812      0.96428571     27             28            -7.4575063      7.4180912     -0.039415029  
      2850   268.04648      13094.342      101.47245      13195.814      0.96428571     27             28            -7.4575063      7.4180912     -0.039415029  
      2900   273.57294      13080.643      103.56456      13184.208      0.96551724     28             29            -11.636394      11.653769      0.017375066  
      2950   297.78129      13071.473      112.72894      13184.202      0.96551724     28             29            -11.636394      11.653769      0.017375066  
      3000   303.30041      13088.125      114.81828      13202.944      0.96666667     29             30             7.482165      -7.4721988      0.0099661795 
      3050   338.99789      13074.613      128.33202      13202.945      0.96666667     29             30             7.482165      -7.4721988      0.0099661795 
      3100   274.90775      13076.31       104.06987      13180.379      0.96774194     30             31            -11.815773      11.830395      0.014621781  
      3150   351.34516      13047.388      133.00623      13180.394      0.96774194     30             31            -11.815773      11.830395      0.014621781  
      3200   298.29611      12981.08       112.92383      13094.003      0.96875        31             32            -95.229954      95.265755      0.035801607  
      3250   602.57853      12865.954      228.11386      13094.068      0.96875        31             32            -95.229954      95.265755      0.035801607  
      3300   272.31324      12415.251      103.08768      12518.339      0.96969697     32             33            -565.82845      565.81695     -0.011495613  
      3350   460.63048      12343.91       174.3776       12518.288      0.96969697     32             33            -565.82845      565.81695     -0.011495613  
      3400   329.95118      12376.789      124.90727      12501.696      0.97058824     33             34            -38.462012      38.410427     -0.051585055  
      3450   434.26831      12337.292      164.39786      12501.69       0.97058824     33             34            -38.462012      38.410427     -0.051585055  
      3500   274.51003      12360.35       103.9193       12464.269      0.97142857     34             35            -16.439392      16.452884      0.013492048  
      3550   403.93027      12311.327      152.913        12464.24       0.97142857     34             35            -16.439392      16.452884      0.013492048  
      3600   297.71985      12322.732      112.70568      12435.437      0.97222222     35             36            -37.618201      37.577273     -0.040928274  
      3650   382.00278      12290.786      144.61207      12435.398      0.97222222     35             36            -37.618201      37.577273     -0.040928274  
      3700   302.08816      12303.378      114.35936      12417.737      0.97297297     36             37            -19.353971      19.369469      0.015498026  
      3750   368.30362      12278.272      139.42608      12417.698      0.97297297     36             37            -19.353971      19.369469      0.015498026  
      3800   284.99888      12283.606      107.89         12391.496      0.97368421     37             38            -19.771824      19.739958     -0.031866106  
      3850   392.36157      12242.912      148.53352      12391.446      0.97368421     37             38            -19.771824      19.739958     -0.031866106  
      3900   266.415        12252.941      100.85483      12353.796      0.97435897     38             39            -30.664438      30.618552     -0.045886487  
      3950   357.33092      12218.524      135.27222      12353.796      0.97435897     38             39            -30.664438      30.618552     -0.045886487  
      4000   276.93216      12232.926      104.83623      12337.762      0.975          39             40            -20.015694      20.009523     -0.0061708683 
      4050   348.86578      12205.66       132.06763      12337.727      0.975          39             40            -20.015694      20.009523     -0.0061708683 
      4100   260.43895      12225.146      98.592519      12323.738      0.97560976     40             41            -7.7797756      7.7238225     -0.055953105  
      4150   307.45448      12207.318      116.39085      12323.709      0.97560976     40             41            -7.7797756      7.7238225     -0.055953105  
      4200   250.42973      12213.539      94.8034        12308.343      0.97619048     41             42            -11.606372      11.591276     -0.015096397  
      4250   283.79456      12200.889      107.43409      12308.323      0.97619048     41             42            -11.606372      11.591276     -0.015096397  
      4300   271.4511       12203.878      102.76131      12306.639      0.97674419     42             43            -9.6617899      9.6602766     -0.0015132749 
      4350   290.38794      12196.718      109.93009      12306.648      0.97674419     42             43            -9.6617899      9.6602766     -0.0015132749 
      4400   294.65337      12199.111      111.54483      12310.656      0.97727273     43             44            -4.7662806      4.7515099     -0.014770729  
      4450   313.87498      12191.836      118.82142      12310.657      0.97727273     43             44            -4.7662806      4.7515099     -0.014770729  
      4500   281.70974      12190.058      106.64485      12296.702      0.97777778     44             45            -9.0539215      9.0578963      0.0039748092 
      4550   304.47419      12181.423      115.26262      12296.686      0.97777778     44             45            -9.0539215      9.0578963      0.0039748092 
      4600   343.58583      12190.787      130.06884      12320.856      0.97826087     45             46             0.72985352    -0.74467365    -0.014820124  
      4650   369.31157      12181.034      139.80765      12320.842      0.97826087     45             46             0.72985352    -0.74467365    -0.014820124  
      4700   305.23146      12203.149      115.5493       12318.698      0.9787234      46             47             12.361652     -12.340628      0.021024192  
      4750   322.22914      12196.714      121.98399      12318.698      0.9787234      46             47             12.361652     -12.340628      0.021024192  
      4800   321.67494      12194.235      121.77419      12316.009      0.97916667     47             48            -8.9144666      8.9221133      0.0076466805 
      4850   332.4994       12190.101      125.87193      12315.973      0.97916667     47             48            -8.9144666      8.9221133      0.0076466805 
      4900   297.92188      12194.88       112.78216      12307.663      0.97959184     48             49             0.64580252    -0.66777748    -0.021974966  
      4950   328.40956      12183.326      124.32367      12307.65       0.97959184     48             49             0.64580252    -0.66777748    -0.021974966  
      5000   274.91836      12184.393      104.07388      12288.467      0.98           49             50            -10.487582      10.479653     -0.0079296153 
Loop time of 18.2609 on 1 procs for 5000 steps with 192 atoms

Performance: 5.914 ns/day, 4.058 hours/ns, 273.810 timesteps/s, 52.571 katom-step/s
99.8% CPU use with 1 MPI tasks x 1 OpenMP threads

MPI task timing breakdown:
Section |  min time  |  avg time  |  max time  |%varavg| %total
---------------------------------------------------------------
Pair    | 15.392     | 15.392     | 15.392     |   0.0 | 84.29
Bond    | 0.029262   | 0.029262   | 0.029262   |   0.0 |  0.16
Kspace  | 0.93902    | 0.93902    | 0.93902    |   0.0 |  5.14
Neigh   | 0.15435    | 0.15435    | 0.15435    |   0.0 |  0.85
Comm    | 0.24568    | 0.24568    | 0.24568    |   0.0 |  1.35
Output  | 0.0024656  | 0.0024656  | 0.0024656  |   0.0 |  0.01
Modify  | 1.4658     | 1.4658     | 1.4658     |   0.0 |  8.03
Other   |            | 0.03271    |            |       |  0.18

Nlocal:            192 ave         192 max         192 min
Histogram: 1 0 0 0 0 0 0 0 0 0
Nghost:          10037 ave       10037 max       10037 min
Histogram: 1 0 0 0 0 0 0 0 0 0
Neighs:         200314 ave      200314 max      200314 min
Histogram: 1 0 0 0 0 0 0 0 0 0

Total # of neighbors = 200314
Ave neighs/atom = 1043.3021
Ave special neighs/atom = 2
Neighbor list builds = 33
Dangerous builds = 0
Total wall time: 0:00:18
